NAME: kroA100
DIMENSION: 16
EDGE_WEIGHT_TYPE: EUC_2D
NODE_COORD_SECTION
1 1380 939
2 2848 96
3 3510 1671
4 457 334
5 3888 666
6 984 965
7 2721 1482
8 1286 525
9 2716 1432
10 738 1325
11 1251 1832
12 2728 1698
13 3815 169
14 3683 1533
15 1247 1945
16 123 862
ACCEPTED_PROBABILITIES
0.0
0.75
0.95
0.75
0.95
0.5
0.75
0.5
0.75
0.75
0.75
0.75
0.95
0.95
0.75
0.75
OUTSOURCING_COSTS
0.0
112.87
150.13
73.6
168.2
26.47
96.47
28.33
94.93
49.93
60.13
103.13
170.27
158.53
67.67
83.93
